(declare-const term_to_project_onto3 Real)
(declare-const term_to_project_onto0 Real)
(declare-const term_to_project_onto1 Real)
(declare-const term_to_project_onto2 Real)
(declare-const main____CPAchecker_TMP_0 Int)
(declare-const __tmp_93_0 Int)
(declare-const term_to_project_onto4 Real)
(declare-const term_to_project_onto Real)
(declare-const main____CPAchecker_TMP_0___0 Int)
(assert (exists
         ((|main____CPAchecker_TMP_0___0'?1| Int)
            (|main____CPAchecker_TMP_0'?2| Int) (|main__y'?3| Int)
            (|main__x'?4| Int) (|__tmp_94_0'?5| Int) (|__tmp_93_0'?6| Int)
            (rem?7 Int) (havoc?8 Int) (main__y?9 Int) (__tmp_94_0?10 Int)
            (main__x?11 Int))
         (and (= main__y?9 0) (<= (+ (- main__x?11) 1) 0) (= main__y?9 0)
                (or (<= (+ havoc?8 1) 0) (<= (+ (- havoc?8) 1) 0))
                (or (<= main__x?11 0)
                      (and (<= (- rem?7) 0)
                             (or (<= rem?7 0) (<= (+ (- rem?7) 2) 0))
                             (or (<= (+ rem?7 -2) 0) (<= (+ rem?7 2) 0))
                             (is_int (/ (+ main__x?11 (- rem?7)) 3))))
                (is_int (/ (+ main__x?11 -2) 3)) (<= (- main__x?11) 0)
                (= (+ |main____CPAchecker_TMP_0___0'?1| (- havoc?8)) 0)
                (= (+ (- __tmp_94_0?10) |main____CPAchecker_TMP_0'?2|) 0)
                (= |main__y'?3| 0) (= (+ |main__x'?4| (- main__x?11) -1) 0)
                (= (+ |__tmp_94_0'?5| (- havoc?8)) 0)
                (= (+ |__tmp_93_0'?6| (- havoc?8)) 0)
                (= term_to_project_onto4 (+ |__tmp_93_0'?6| (- __tmp_93_0)))
                (= term_to_project_onto3 (+ |__tmp_94_0'?5| (- __tmp_94_0?10)))
                (= term_to_project_onto2 (+ |main__x'?4| (- main__x?11)))
                (= term_to_project_onto1 (+ |main__y'?3| (- main__y?9)))
                (= term_to_project_onto0 (+ |main____CPAchecker_TMP_0'?2|
                                              (- main____CPAchecker_TMP_0)))
                (= term_to_project_onto (+ |main____CPAchecker_TMP_0___0'?1|
                                             (- main____CPAchecker_TMP_0___0))))))
(check-sat)
